
  22    4
  10   10   10   10

   0   0   0   0   0   4 2 3 5 6 
   1  10  10  10  10   2 9 4 
   8  10  10  10  10   1 4 
   3  10  10  10  10   4 13 12 11 8 
  10  10  10  10  10   2 13 7 
   9  10  10  10  10   2 9 7 
   8  10  10  10  10   2 12 8 
   3  10  10  10  10   2 16 10 
   5  10  10  10  10   2 16 10 
   9  10  10  10  10   3 17 15 14 
   4  10  10  10  10   3 16 15 14 
   4  10  10  10  10   2 20 14 
   2  10  10  10  10   2 20 14 
   7  10  10  10  10   2 21 18 
  10  10  10  10  10   2 21 18 
   2  10  10  10  10   2 20 18 
   6  10  10  10  10   2 20 19 
  10  10  10  10  10   1 19 
   9  10  10  10  10   1 22
   2  10  10  10  10   1 22
   3  10  10  10  10   1 22
   0   0   0   0   0   0 
